param q := 3;
param p := 3;
param o := 64;
param r := 164;
param c := 64;
param i := 64;
param p14 := 1;
param p15 := 1;
param p16 := 1;
param p17 := 1;
param bram_bound := 3763;
param dsp_bound := 8601;
